6 100 438
0 86 22
1 29 17 1 63
2 4 50 23 40
3 25 13 23 35
4 67 37 5 66
5 13 7 7 6
6 62 15 18 68
7 84 38 12 6
8 34 3 20 29
9 19 45 19 53
10 42 76 19 19
11 40 86 16 26
12 25 94 2 72
13 63 57 26 52
14 75 24 13 9
15 61 85 19 40
16 87 38 17 68
17 54 39 14 12
18 66 34 8 32
19 46 39 10 29
20 47 17 5 29
21 21 54 19 73
22 19 83 12 64
23 1 82 9 10
24 94 28 18 28
25 82 72 4 48
26 41 59 20 74
27 100 77 8 46
28 1 57 3 76
29 96 7 18 34
30 57 82 26 43
31 47 38 21 65
32 68 89 21 12
33 16 36 8 17
34 51 38 19 15
35 83 74 66 66
36 84 2 21 37
